141498
90,59,95,77,93,2,100,104,103,37,69,36,48,17,6,31,52,83,38,47,84,10,40,66,94,53,70,35,72,32,1,81,71,44,80,24,61,21,85,45,76,16,20,89,63,15,19,55,39,5,68,87,12,97,30,64,51,4,29,28,54,96,7,105,41,18,8,33,25,49,67,98,99,50,62,74,34,102,3,14,60,46,13,101,23,73,82,56,79,22,91,11,92,88,75,57,27,26,9,58,65,43,86,0,42,78
